# LAMMPS Input File (License CC BY 4.0)
# By Simon Gravelle, Jacob R. Gissinger, and Axel Kohlmeyer  
# The DOI will be added upon publication
# Find more on GitHub: https://github.com/lammpstutorials

units metal
boundary p p p
atom_style full

pair_style hybrid/overlay vashishta lj/cut/tip4p/long OW HW OW-HW HW-OW-HW 0.1546 10
kspace_style pppm/tip4p 1.0e-5
bond_style harmonic
angle_style harmonic

