# LAMMPS Input File
# Licensed under CC BY 4.0
# A Set of Tutorials for the LAMMPS Simulation Package (LiveCoMS, 2025)
# By Simon Gravelle, Cecilia M. S. Alvares, Jacob R. Gissinger, and Axel Kohlmeyer
# Please cite doi.org/10.33011/livecoms.6.1.3037
# Find more on GitHub: https://github.com/lammpstutorials

boundary p p f
units real
atom_style full
bond_style harmonic
angle_style harmonic
pair_style lj/cut/tip4p/long O H O-H H-O-H 0.1546 12.0
kspace_style pppm/tip4p 1.0e-5
kspace_modify slab 3.0

read_data create.data

include parameters.inc
include groups.inc

