# LAMMPS Input File (License CC BY 4.0)
# By Simon Gravelle, Jacob R. Gissinger, and Axel Kohlmeyer  
# The DOI will be added upon publication
# Find more on GitHub: https://github.com/lammpstutorials

boundary p p f
units real
atom_style full
bond_style harmonic
angle_style harmonic
pair_style lj/cut/tip4p/long O H O−H H−O−H 0.1546 12.0
kspace_style pppm/tip4p 1.0e−5
kspace_modify slab 3.0

read_data create.data

include parameters.inc
include groups.inc
