variable        T equal 300

units           real
atom_style      molecular
boundary        f f f
pair_style      lj/cut 14

bond_style      harmonic
angle_style     harmonic
dihedral_style  opls
improper_style  harmonic
special_bonds   lj 0.0 0.0 0.5
read_data       cnt_molecular.data
include         parm.lmp

group           carbon_atoms type 1
variable        xmax equal bound(carbon_atoms,xmax)-0.5
variable        xmin equal bound(carbon_atoms,xmin)+0.5
region          rtop block ${xmax} INF INF INF INF INF
region          rbot block INF ${xmin} INF INF INF INF
region          rmid block ${xmin} ${xmax} INF INF INF INF

group           carbon_top region rtop
group           carbon_bot region rbot
group           carbon_mid region rmid

variable        xmax_del equal ${xmax}
variable        xmin_del equal ${xmin}+2
region          rdel block ${xmin_del} ${xmax_del} INF INF INF INF
group           rdel region rdel
delete_atoms    random fraction 0.02 no rdel NULL 482793 bond yes

reset_atoms     id sort yes
velocity        carbon_mid create ${T} 48455 mom yes rot yes

fix             mynve    all      nve
compute         Tmid     carbon_mid temp
fix             myber    carbon_mid temp/berendsen ${T} ${T} 100
fix_modify      myber temp Tmid

fix             mysf1    carbon_top setforce 0 0 0
fix             mysf2    carbon_bot setforce 0 0 0
velocity        carbon_top set 0 0 0
velocity        carbon_bot set 0 0 0

variable        L equal xcm(carbon_top,x)-xcm(carbon_bot,x)
variable        F equal f_mysf1[1]-f_mysf2[1]

dump            mydmp    all      image 500 dump.*.jpg type type shiny 0.1 box no 0.01 view 0 90 zoom 1.8
dump_modify     mydmp acolor 1 pink adiam 1 1 backcolor white

thermo          100
thermo_style    custom step temp etotal v_L v_F
thermo_modify   temp Tmid line yaml
timestep        1.0
run             5000

velocity        carbon_top set 0.0005 0 0
velocity        carbon_bot set -0.0005 0 0
run             10000
