variable        T equal 300

units           real
atom_style      molecular
boundary        f f f

pair_style      lj/cut 14.0
bond_style      harmonic
angle_style     harmonic
dihedral_style  opls
improper_style  harmonic
special_bonds   lj 0.0 0.0 0.5

read_data       unbreakable.data
include         parameters.inc

group           carbon_atoms type 1
variable        xmax equal bound(carbon_atoms,xmax)−0.5
variable        xmin equal bound(carbon_atoms,xmin)+0.5
region          rtop block ${xmax} INF INF INF INF INF
region          rbot block INF ${xmin} INF INF INF INF
region          rmid block ${xmin} ${xmax} INF INF INF INF

group           cnt_top region rtop
group           cnt_bot region rbot
group           cnt_mid region rmid
set             group cnt_top mol 1
set             group cnt_bot mol 2
set             group cnt_mid mol 3

variable        xmax_del equal ${xmax}−2
variable        xmin_del equal ${xmin}+2
region          rdel block ${xmin_del} ${xmax_del} INF INF INF INF
group           rdel region rdel
delete_atoms    random fraction 0.02 no rdel NULL 482793 bond yes

reset_atoms     id sort yes
velocity        cnt_mid create ${T} 48455 mom yes rot yes

fix             mynve    all      nve
compute         Tmid     cnt_mid  temp
fix             myber    cnt_mid  temp/berendsen ${T} ${T} 100.0
fix_modify      myber temp Tmid
fix             mysf1    cnt_top  setforce 0 0 0
fix             mysf2    cnt_bot  setforce 0 0 0
velocity        cnt_top set 0 0 0
velocity        cnt_bot set 0 0 0

variable        L equal xcm(cnt_top,x)−xcm(cnt_bot,x)
variable        F equal f_mysf1[1]−f_mysf2[1]

dump            mydmp    all      image 500 dump.*.ppm type type shiny 0.1 box no 0.01 view 0 90 zoom 1.8
dump_modify     mydmp acolor 1 pink adiam 1 1 backcolor white

thermo          100
thermo_style    custom step temp etotal v_L v_F
thermo_modify   temp Tmid line yaml

timestep        1.0
run             5000

velocity        cnt_top set 0.0005 0 0
velocity        cnt_bot set -0.0005 0 0
run             10000
