# Initialisation

variable        T equal 300
units           metal
atom_style      atomic
boundary        p p p
pair_style      airebo 2.5 1 1

# System definition
read_data       cnt_atom.data
pair_coeff      *    *    CH.airebo C

group           carbon_atoms type 1

variable        xmax equal bound(carbon_atoms,xmax)-0.5
variable        xmin equal bound(carbon_atoms,xmin)+0.5
region          rtop block ${xmax} INF INF INF INF INF
region          rbot block INF ${xmin} INF INF INF INF
region          rmid block ${xmin} ${xmax} INF INF INF INF

group           carbon_top region rtop
group           carbon_bot region rbot
group           carbon_mid region rmid

variable        xmax_del equal ${xmax}-2
variable        xmin_del equal ${xmin}+2
region          rdel block ${xmin_del} ${xmax_del} INF INF INF INF

group           rdel region rdel
delete_atoms    random fraction 0.02 no rdel NULL 482793


reset_atoms     id sort yes
velocity        carbon_mid create ${T} 48455 mom yes rot yes
fix             mynve    all      nve
compute         Tmid     carbon_mid temp
fix             myber    carbon_mid temp/berendsen ${T} ${T} 0.1
fix_modify      myber temp Tmid

fix             mysf1    carbon_bot setforce 0 0 0
fix             mysf2    carbon_top setforce 0 0 0
velocity        carbon_bot set 0 0 0
velocity        carbon_top set 0 0 0

variable        L equal xcm(carbon_top,x)-xcm(carbon_bot,x)
variable        F equal f_mysf1[1]-f_mysf2[1]

dump            mydmp    all      image 5000 dump.*.jpg type type shiny 0.1 box no 0.01 view 0 90 zoom 1.8
dump_modify     mydmp acolor 1 pink adiam 1 1 backcolor white

thermo          100
thermo_style    custom step temp etotal v_L v_F
thermo_modify   temp Tmid line yaml

timestep        0.0005
run             5000

velocity        carbon_top set 0.15 0 0
run             280000
