# LAMMPS input file

units real
boundary p p p
atom_style full

kspace_style pppm 1.0e-5
pair_style lj/class2/coul/long 8.5
angle_style class2
bond_style class2
dihedral_style class2
improper_style class2
pair_modify tail yes mix sixthpower

special_bonds lj/coul 0 0 1

read_data nylon.data &
  extra/bond/per/atom 5  &
  extra/angle/per/atom 15 &
  extra/dihedral/per/atom 15 &
  extra/improper/per/atom 25 &
  extra/special/per/atom 25
replicate 3 4 4 bond/periodic

molecule CNT cnt.molecule
create_atoms 0 random 5 8305 NULL overlap 3 maxtry 500 mol CNT 7687
minimize 1.0e-6 1.0e-6 1000 1000
reset_timestep 0

dump mydmp all image 1000 dump.mixing.*.ppm type &
     type shiny 0.1 box yes 0.01 &
     view 0 0 zoom 1.8 fsaa yes bond atom 0.5
dump_modify mydmp backcolor white &
     acolor c2 gray acolor c_1 lightslategray &
     acolor o dimgray acolor o_1 dimgray &
     acolor hc lightslategray acolor ho lightslategray &
     acolor hn lightslategray acolor hw lightslategray &
     acolor o* red acolor n darkslategray &
     acolor na darkslategray acolor cp lightpink &
     adiam c2 0.3 adiam c_1 0.3 adiam cp 0.3 &
     adiam o 0.28 adiam o_1 0.28 adiam o* 2.8 &
     adiam hc 0.15 adiam ho 0.15 adiam hn 0.15 &
     adiam hw 1.5 adiam n 0.3 adiam na 0.3 

fix mynpt all npt temp 300 300 100 iso 1000 1000 1000

thermo 1000
thermo_style custom step temp pe etotal press density vol

run 10000
unfix mynpt

velocity all create 300 1829 dist gaussian mom yes rot yes
fix mynpt all npt temp 300 300 100 iso 1 1 1000

run 20000
write_data cnt-nylon-mix.data
