# LAMMPS Input File (License CC BY 4.0)
# By Simon Gravelle, Jacob R. Gissinger, and Axel Kohlmeyer  
# The DOI will be added upon publication
# Find more on GitHub: https://github.com/lammpstutorials

units real
boundary p p p
atom_style full

kspace_style pppm 1.0e-5
pair_style lj/class2/coul/long 8.5
angle_style class2
bond_style class2
dihedral_style class2
improper_style class2

pair_modify tail yes mix sixthpower
special_bonds lj/coul 0 0 1

read_data mixing.data &
  extra/bond/per/atom 5  &
  extra/angle/per/atom 15 &
  extra/dihedral/per/atom 15 &
  extra/improper/per/atom 25 &
  extra/special/per/atom 25