
boundary p p f
units real
atom_style full
bond_style harmonic
angle_style harmonic
pair_style lj/cut/tip4p/long O H O−H H−O−H 0.1546 12.0
kspace_style pppm/tip4p 1.0e−5
kspace_modify slab 3.0

read_data create.data

include parameters.inc
include groups.inc

fix mynve fluid nve/limit 0.1
fix myber fluid temp/berendsen 1 1 100
fix myshk H2O shake 1.0e−5 200 0 b O−H a H−O−H
timestep 0.5

dump mydmp all image 200 myimage-*.ppm type type &
  shiny 0.1 box no 0.01 view 90 0 zoom 1.8
dump_modify mydmp backcolor white &
  acolor O red adiam O 2 &
  acolor H white adiam H 1 &
  acolor Na+ blue adiam Na+ 2.5 &
  acolor Cl− cyan adiam Cl− 3 &
  acolor WALL gray adiam WALL 3

compute Tfluid fluid temp
thermo_modify temp Tfluid
thermo 200

run 4000

fix myber fluid temp/berendsen 300 300 100
timestep 1.0

run 4000

unfix mynve
fix mynve fluid nve

run 4000

write_data minimize.data nocoeff
