
units metal
boundary p p p
atom_style full
pair_style vashishta
neighbor 1.0 bin
neigh_modify delay 1

read_data generate.data

pair_coeff * * SiO.1990.vashishta Si O

dump viz all image 200 myimage-*.ppm type type &
  shiny 0.1 box no 0.01 view 180 90 zoom 1.6 size 1000 650
dump_modify viz backcolor white acolor Si yellow &
  adiam Si 2.5 acolor O red adiam O 2

thermo 200
thermo_style custom step temp etotal vol lx ly lz

timestep 0.001
fix nvt1 all nvt temp 300 300 0.1
fix mydef all deform 1 x erate 0.015
run 20000

write_data cracking.data
