# LAMMPS Input File
# Licensed under CC BY 4.0
# By Simon Gravelle, Jacob R. Gissinger, and Axel Kohlmeyer
# Please cite doi.org/10.48550/arXiv.2503.14020
# Find more on GitHub: https://github.com/lammpstutorials

units real
atom_style full

read_data deform-mod.data
displace_atoms all move -12 0 0 # optional

pair_style reaxff NULL safezone 3.0 mincap 150
pair_coeff * * ffield.reax.CHOFe Si O H
fix myqeq all qeq/reaxff 1 0.0 10.0 1.0e-6 reaxff maxiter 400
