
units real
atom_style full

read_data silica.data
