# LAMMPS Input File (License CC BY 4.0)
# By Simon Gravelle, Jacob R. Gissinger, and Axel Kohlmeyer  
# The DOI will be added upon publication
# Find more on GitHub: https://github.com/lammpstutorials

units real
atom_style full

read_data silica.data
