units metal
atom_style atomic
boundary f f f

read_data breakable.data
pair_style airebo 3.0
pair_coeff * * CH.airebo C

run 0 post no
