variable T equal 300

units real
atom_style molecular
boundary f f f

pair_style lj/cut 14.0
bond_style harmonic
angle_style harmonic
dihedral_style opls
improper_style harmonic
special_bonds lj 0.0 0.0 0.5

read_data unbreakable.data

pair_coeff 1 1 0.066 3.4
bond_coeff 1 469.0 1.4
angle_coeff 1 63.0 120.0
dihedral_coeff 1 0 7.25 0 0
improper_coeff 1 5 180.0

run 0 post no
