
variable sigma equal 3.405
variable epsilon equal 0.238
variable U0 equal 1.5*${epsilon}
variable dlt equal 1.0
variable x0 equal 10.0

units real
atom_style atomic
pair_style lj/cut 3.822
pair_modify shift yes
boundary p p p

